NAME : LR2_6_10
TYPE : PDPTW
DIMENSION : 150
EDGE_WEIGHT_TYPE : EXACT_2D
NODE_COORD_SECTION
1 1 0
2 150 0
3 0 0
4 -16 4049
5 0 2
6 1184 1691
7 3 284
8 3274 10
9 38 139
10 10 0
11 178 -19
12 123 0
13 27 1680
14 201 7
15 2671 3212
16 8 175
17 3184 10
18 45 115
19 10 167
20 203 5
21 0 454
22 -9 2892
23 0 12
24 703 1153
25 13 274
26 2376 10
27 232 121
28 10 110
29 83 22
30 0 541
31 -34 522
32 0 17
33 1579 2053
34 18 61
35 1611 10
36 80 35
37 10 0
38 135 -15
39 495 0
40 2 482
41 446 22
42 1857 2384
43 23 102
44 597 10
45 276 28
46 10 0
47 179 -8
48 8 0
49 23 402
50 455 27
51 2317 2794
52 28 61
53 2863 10
54 283 144
55 10 0
56 232 -42
57 135 0
58 -26 2256
59 0 32
60 2093 2601
61 33 176
62 2727 10
63 117 168
64 10 0
65 102 -25
66 509 0
67 -18 1478
68 0 37
69 2500 2987
70 38 29
71 3270 10
72 136 241
73 10 249
74 42 -19
75 304 0
76 -7 1578
77 0 42
78 2173 2650
79 43 136
80 2723 10
81 230 80
82 10 80
83 172 -5
84 33 0
85 -21 809
86 0 47
87 2509 3101
88 48 72
89 2984 10
90 57 125
91 10 0
92 47 -14
93 114 0
94 -17 2569
95 0 52
96 2317 2868
97 53 220
98 2737 10
99 191 234
100 10 0
101 40 -23
102 528 0
103 -18 1364
104 0 57
105 191 731
106 58 272
107 1761 10
108 56 116
109 10 0
110 93 39
111 0 478
112 -9 3340
113 0 62
114 2587 3043
115 63 208
116 1465 10
117 285 283
118 10 0
119 37 -19
120 405 0
121 19 53
122 588 67
123 310 777
124 68 37
125 777 10
126 201 175
127 10 290
128 155 11
129 0 345
130 -6 3410
131 0 72
132 2522 2941
133 73 279
134 3058 10
135 46 155
136 10 62
137 178 -36
138 84 0
139 -18 433
140 0 77
141 2419 2908
142 78 268
143 3687 10
144 207 149
145 10 0
146 123 4
147 0 44
148 -9 2533
149 0 82
150 113 598
PICKUP_AND_DELIVERY_SECTION
1 0 0 0 0 0 0
2 0 0 0 0 4823 0
3 0 0 0 0 0 133
4 0 0 0 0 10 10
5 0 0 0 0 41 41
6 0 0 0 0 395 395
7 0 0 0 0 -2 -2
8 0 0 0 0 0 0
9 0 0 0 0 1171 1171
10 0 0 0 0 5 5
11 0 0 0 0 3396 3396
12 0 0 0 0 241 241
13 0 0 0 0 10 10
14 0 0 0 0 221 221
15 0 0 0 0 0 0
16 0 0 0 0 8 8
17 0 0 0 0 25 0
18 0 0 0 0 674 674
19 0 0 0 0 10 0
20 0 0 0 0 2491 2491
21 0 0 0 0 178 178
22 0 0 0 0 10 10
23 0 0 0 0 2 2
24 0 0 0 0 0 0
25 0 0 0 0 41 41
26 0 0 0 0 153 0
27 0 0 0 0 2058 2058
28 0 0 0 0 15 0
29 0 0 0 0 1106 1106
30 0 0 0 0 275 275
31 0 0 0 0 10 10
32 0 0 0 0 211 211
33 0 0 0 0 408 408
34 0 0 0 0 -11 -11
35 0 0 0 0 0 0
36 0 0 0 0 1823 1823
37 0 0 0 0 20 20
38 0 0 0 0 3917 3917
39 0 0 0 0 60 60
40 0 0 0 0 10 10
41 0 0 0 0 127 127
42 0 0 0 0 344 344
43 0 0 0 0 15 15
44 0 0 0 0 593 0
45 0 0 0 0 875 875
46 0 0 0 0 25 25
47 0 0 0 0 3623 3623
48 0 0 0 0 289 289
49 0 0 0 0 10 10
50 0 0 0 0 134 134
51 0 0 0 0 142 142
52 0 0 0 0 9 9
53 0 0 0 0 61 0
54 0 0 0 0 245 245
55 0 0 0 0 30 30
56 0 0 0 0 4039 4039
57 0 0 0 0 120 120
58 0 0 0 0 10 10
59 0 0 0 0 64 64
60 0 0 0 0 500 500
61 0 0 0 0 5 5
62 0 0 0 0 45 0
63 0 0 0 0 37 37
64 0 0 0 0 35 35
65 0 0 0 0 4515 4515
66 0 0 0 0 157 157
67 0 0 0 0 10 10
68 0 0 0 0 3 3
69 0 0 0 0 0 0
70 0 0 0 0 -13 -13
71 0 0 0 0 0 0
72 0 0 0 0 1348 1348
73 0 0 0 0 40 0
74 0 0 0 0 1342 1342
75 0 0 0 0 183 183
76 0 0 0 0 10 10
77 0 0 0 0 299 299
78 0 0 0 0 284 284
79 0 0 0 0 -12 -12
80 0 0 0 0 0 0
81 0 0 0 0 3108 3108
82 0 0 0 0 45 0
83 0 0 0 0 3347 3347
84 0 0 0 0 136 136
85 0 0 0 0 10 10
86 0 0 0 0 200 200
87 0 0 0 0 111 111
88 0 0 0 0 -20 -20
89 0 0 0 0 0 0
90 0 0 0 0 648 648
91 0 0 0 0 50 50
92 0 0 0 0 714 714
93 0 0 0 0 262 262
94 0 0 0 0 10 10
95 0 0 0 0 250 250
96 0 0 0 0 474 474
97 0 0 0 0 -9 -9
98 0 0 0 0 0 0
99 0 0 0 0 166 166
100 0 0 0 0 55 55
101 0 0 0 0 3758 3758
102 0 0 0 0 227 227
103 0 0 0 0 10 10
104 0 0 0 0 141 141
105 0 0 0 0 0 0
106 0 0 0 0 8 8
107 0 0 0 0 521 0
108 0 0 0 0 755 755
109 0 0 0 0 60 60
110 0 0 0 0 2172 2172
111 0 0 0 0 120 120
112 0 0 0 0 10 10
113 0 0 0 0 119 119
114 0 0 0 0 0 0
115 0 0 0 0 -35 -35
116 0 0 0 0 0 0
117 0 0 0 0 2003 2003
118 0 0 0 0 65 65
119 0 0 0 0 3552 3552
120 0 0 0 0 180 180
121 0 0 0 0 10 10
122 0 0 0 0 139 139
123 0 0 0 0 0 0
124 0 0 0 0 7 7
125 0 0 0 0 555 0
126 0 0 0 0 2661 2661
127 0 0 0 0 70 0
128 0 0 0 0 572 572
129 0 0 0 0 94 94
130 0 0 0 0 10 10
131 0 0 0 0 135 135
132 0 0 0 0 529 529
133 0 0 0 0 29 29
134 0 0 0 0 548 0
135 0 0 0 0 2799 2799
136 0 0 0 0 75 0
137 0 0 0 0 3364 3364
138 0 0 0 0 15 15
139 0 0 0 0 10 10
140 0 0 0 0 146 146
141 0 0 0 0 243 243
142 0 0 0 0 -12 -12
143 0 0 0 0 0 0
144 0 0 0 0 1210 1210
145 0 0 0 0 80 80
146 0 0 0 0 463 463
147 0 0 0 0 103 103
148 0 0 0 0 10 10
149 0 0 0 0 235 235
150 0 0 0 0 0 0
DEPOT_SECTION
1 
-1
EOF
